HUN,8,6,67
0,7,1,66,2,23,4,4,5,34,3,52
2,90,0,41,5,100,3,67,4,8,1,81
0,76,2,37,5,82,1,92,4,16,3,23
5,82,4,99,2,79,3,67,0,88,1,79
0,12,1,17,4,66,3,56,2,67,5,78
1,82,4,79,0,54,2,34,3,91,5,17
4,14,5,5,1,92,2,17,0,16,3,23
1,4,2,43,3,6,4,87,0,73,5,28
